CMD:
./solvers/bin/cadical --plain --no-reduce -t 1600 ./data/cnfs//pdtvisgigamax3/pdtvisgigamax3.83.cnf

c --- [ banner ] -------------------------------------------------------------
c 
c CaDiCaL SAT Solver
c Copyright (c) 2016-2024
c A. Biere, M. Fleury, N. Froleyks, K. Fazekas, F. Pollitt, T. Faller
c JKU Linz, University of Freiburg, TU Wien
c 
c Version 2.1.3 5296d3d2a9bf48c154ab2acb5e44625776d821bf
c g++ (Gentoo 12.3.1_p20230526 p2) 12.3.1 20230526 -Wall -Wextra -O3 -DNDEBUG
c Sat Aug 9 07:26:21 PDT 2025 Linux cedar2.int.cedar.computecanada.ca 5.14.0-362.24.2.el9_3.x86_64 x86_64
c 
c --- [ limit ] --------------------------------------------------------------
c 
c setting time limit to 1600 seconds real time (due to '-t 1600')
c 
c --- [ parsing input ] ------------------------------------------------------
c 
c reading DIMACS file from './data/cnfs//pdtvisgigamax3/pdtvisgigamax3.83.cnf'
c opening file to read './data/cnfs//pdtvisgigamax3/pdtvisgigamax3.83.cnf'
c found 'p cnf 91996 270160' header
c parsed 270160 clauses in 0.04 seconds process time
c 
c --- [ options ] ------------------------------------------------------------
c 
c   --compact=false                (different from default 'true')
c   --decompose=false              (different from default 'true')
c   --deduplicate=false            (different from default 'true')
c   --elim=false                   (different from default 'true')
c   --probe=false                  (different from default 'true')
c   --reduce=false                 (different from default 'true')
c   --subsume=false                (different from default 'true')
c   --ternary=false                (different from default 'true')
c   --transred=false               (different from default 'true')
c   --vivify=false                 (different from default 'true')
c 
c --- [ solving ] ------------------------------------------------------------
c 
c time measured in process time since initialization
c 
c  seconds  reductions  redundant  irredundant
c         MB    restarts       trail       variables
c          level   conflicts       glue         remaining
c 
c *  0.04 47  0 0   0    0    0  0% 0 269097 91150 99%
c {  0.04 47  0 0   0    0    0  0% 0 269097 91150 99%
c i  0.05 47 37 0   0   43   38  3% 1 269097 91149 99%
c }  0.12 48 708 0   0 1000  926 42% 1 269097 91149 99%
c [  0.12 48  0 0   0 1000  926  0% 0 269097 91149 99%
c O  0.12 48 720 0   0 1002  928 44% 1 269097 91149 99%
c i  0.20 49 1156 0   1 2524 2379 50% 4 269097 91123 99%
c i  0.20 49 1176 0   1 2546 2399 51% 4 269097 91106 99%
c ]  0.22 49 1480 0   1 3000 2814 61% 4 269097 91105 99%
c {  0.22 49 708 0   1 3000 2814 42% 1 269097 91105 99%
c F  0.22 49 715 0   2 3005 2819 43% 1 269097 91105 99%
c i  0.38 49 631 0 105 3339 3142 38% 2 269097 91104 99%
c i  0.38 49 611 0 118 3391 3181 37% 2 269097 91103 99%
c i  0.39 49 567 0 146 3499 3283 35% 2 269097 91102 99%
c i  0.39 49 539 0 169 3581 3358 33% 2 269097 91101 99%
c i  0.39 49 527 0 180 3620 3392 32% 2 269097 91100 99%
c i  0.39 49 509 0 194 3675 3443 31% 2 269097 91099 99%
c i  0.40 49 502 0 203 3711 3475 31% 2 269097 91098 99%
c i  0.41 49 493 0 216 3755 3515 30% 2 269097 91097 99%
c i  0.42 49 467 0 242 3857 3605 29% 2 269097 91096 99%
c 
c  seconds   reductions  redundant  irredundant
c         MB     restarts       trail       variables
c           level   conflicts       glue         remaining
c 
c i  0.42 49 465 0 244 3866 3612 29% 2 269097 91095 99%
c i  0.44 49 434 0 310 4283 3949 27% 2 269097 91094 99%
c i  0.44 49 431 0 315 4301 3965 27% 2 269097 91093 99%
c i  0.46 49 362 0 425 4761 4396 23% 2 269097 91092 99%
c i  0.47 49 349 0 453 4870 4490 22% 2 269097 91091 99%
c i  0.47 49 345 0 461 4906 4524 22% 2 269097 91090 99%
c i  0.47 49 335 0 467 4992 4608 22% 2 269097 91089 99%
c i  0.48 49 307 0 536 5282 4867 20% 2 269097 91088 99%
c i  0.49 49 286 0 580 5556 5114 19% 2 269097 91087 99%
c i  0.49 49 283 0 580 5614 5167 19% 2 269097 91086 99%
c i  0.51 49 266 0 642 5976 5499 18% 2 269097 91085 99%
c #  0.52 49 265 0 648 6007 5525 18% 2 269097 91085 99%
c i  0.52 49 256 0 660 6158 5668 18% 2 269097 91084 99%
c i  0.54 49 241 0 731 6437 5912 17% 2 269097 91083 99%
c i  0.55 50 230 0 783 6692 6147 16% 2 269097 91079 99%
c i  0.56 50 230 0 783 6711 6164 16% 2 269097 91075 99%
c i  0.56 50 230 0 787 6748 6198 16% 2 269097 91074 99%
c i  0.56 50 228 0 792 6793 6239 16% 2 269097 91073 99%
c i  0.56 50 224 0 808 6870 6311 16% 2 269097 91072 99%
c }  0.57 50 220 0 832 7000 6434 16% 2 269097 91072 99%
c 
c  seconds    reductions  redundant  irredundant
c         MB      restarts       trail       variables
c           level    conflicts       glue         remaining
c 
c [  0.57 50 1480 0 832 7000 6434 61% 4 269097 91072 99%
c i  0.64 50 1088 0 833 8417 7701 55% 3 269097 91053 99%
c i  0.69 50 948 0 834 9785 8885 53% 3 269097 91051 99%
c i  0.69 50 947 0 834 9793 8892 53% 3 269097 91023 99%
... skipped 56 lines ...
c i  1.75 52 124 0 2258 25919 23533 13% 3 267107 90962 99%
c i  1.80 52 120 0 2379 26773 24319 13% 3 267107 90961 99%
c i  1.85 52 119 0 2462 27442 24936 13% 3 267107 90960 99%
c i  1.86 52 118 0 2480 27590 25075 13% 3 267107 90959 99%
c i  1.86 52 118 0 2480 27619 25098 13% 3 267107 90958 99%
c i  1.87 52 118 0 2503 27741 25205 13% 3 267107 90957 99%
c F  1.90 52 117 0 2567 28016 25461 13% 3 267107 90957 99%
c i  1.91 52 116 0 2576 28077 25517 13% 3 267107 90956 99%
c i  1.91 52 116 0 2588 28192 25621 13% 3 267107 90954 99%
c i  1.92 52 116 0 2596 28219 25647 13% 3 267107 90953 99%
c 
c  seconds   reductions     redundant  irredundant
c         MB     restarts          trail       variables
c           level     conflicts        glue         remaining
c 
c i  1.92 52 116 0 2597 28259 25685 13% 3 267107 90952 99%
c i  1.92 52 116 0 2600 28300 25722 13% 3 267107 90951 99%
c i  2.07 52 111 0 2815 30212 27511 13% 3 267107 90950 99%
c i  2.13 52 110 0 2914 30730 27988 13% 3 267107 90949 99%
c }  2.15 52 110 0 2947 31000 28234 13% 3 267107 90949 99%
c [  2.15 52 622 0 2947 31000 28234 45% 3 267107 90949 99%
c i  2.16 52 617 0 2947 31093 28321 45% 3 267107 90948 99%
c i  2.25 53 528 0 2947 33061 30045 40% 4 267107 90947 99%
c i  2.35 53 478 0 2948 34597 31377 38% 4 267107 90946 99%
c i  2.39 53 468 0 2949 34996 31723 38% 4 267107 90945 99%
c i  2.44 53 468 0 2949 35513 32194 39% 4 267107 90916 99%
c B  2.46 53 456 0 2949 36018 32647 38% 4 267107 90916 99%
c i  2.47 53 451 0 2950 36180 32799 38% 4 267107 90915 99%
c i  2.63 54 413 0 2951 38598 34976 37% 4 267107 90914 99%
c i  2.66 54 404 0 2951 39017 35287 36% 4 267107 90869 99%
c i  2.97 55 321 0 2954 44288 39769 30% 4 267107 90849 99%
c i  3.00 55 314 0 2954 44794 40185 30% 4 267107 90795 99%
c i  3.00 55 313 0 2954 44910 40256 30% 4 267107 90400 98%
c i  3.01 55 312 0 2954 44989 40326 30% 4 267107 89921 98%
c i  3.01 55 312 0 2954 44990 40326 30% 4 267107 89876 98%
c 
c  seconds   reductions     redundant  irredundant
c         MB     restarts          trail       variables
c           level     conflicts        glue         remaining
c 
c i  3.01 55 312 0 2954 44991 40326 30% 4 267107 89626 97%
c i  3.01 55 312 0 2954 44997 40331 30% 4 267107 89618 97%
c i  3.01 55 312 0 2954 44998 40331 30% 4 267107 89051 97%
c i  3.01 55 312 0 2954 45000 40332 30% 4 267107 89008 97%
c ]  3.01 55 311 0 2954 45012 40338 30% 4 267107 89005 97%
c 0  3.01 55 311 0 2954 45012 40338 30% 4 267107 89005 97%
c 
c --- [ result ] -------------------------------------------------------------
c 
s UNSATISFIABLE
c 
c --- [ run-time profiling ] -------------------------------------------------
c 
c process time taken by individual solving procedures
c (percentage relative to process time for solving)
c 
c         2.97  100.00% search
c         1.53   51.49% unstable
c         1.33   44.97% stable
c         0.10    3.52% walk
c         0.04    1.46% parse
c         0.00    0.02% lucky
c         0.00    0.00% simplify
c   =================================
c         2.97   98.55% solve
c 
c last line shows process time for solving
c (percentage relative to total process time)
c 
c --- [ statistics ] ---------------------------------------------------------
c 
c chronological:             22698        50.43 %  of conflicts
c conflicts:                 45012     15167.41    per second
c decisions:                297677    100306.37    per second
c fixed:                      2991         3.25 %  of all variables
c learned:                   42741        94.95 %  per conflict
c learned_lits:             455491       100.00 %  learned literals
c minimized:                     0         0.00 %  learned literals
c shrunken:                  61483        13.50 %  learned literals
c minishrunken:              59462        13.05 %  learned literals
c otfs:                       1378         3.06 %  of conflict
c propagations:           43547963        14.67 M  per second
c rephased:                      8      5626.50    interval
c restarts:                   2954        15.24    interval
c stabilizing:                   3        53.27 %  of conflicts
c subsumed:                   2303         0.74 %  of all clauses
c strengthened:               1338         0.43 %  of all clauses
c walked:                        1     45012.00    interval
c 
c seconds are measured in process time for solving
c 
c --- [ resources ] ----------------------------------------------------------
c 
c total process time since initialization:         3.01    seconds
c total real time since initialization:            3.04    seconds
c maximum resident set size of process:           53.33    MB
c 
c --- [ shutting down ] ------------------------------------------------------
c 
c exit 20
